NAME : kroE100-C-5-1-a__cluster__26282.tour
COMMENT : Length = 26282.000
COMMENT : Generated by compare_sota_instances.py for cluster
TYPE : TOUR
DIMENSION : 100
TOUR_SECTION
8
52
14
44
72
89
81
71
61
1
40
25
54
45
99
35
84
17
49
20
15
56
23
36
28
64
95
59
98
32
58
62
63
12
76
51
69
3
46
26
79
16
73
47
83
74
21
7
88
97
65
31
57
80
10
50
60
9
75
41
87
27
67
82
92
13
66
30
93
91
55
6
70
96
4
2
11
85
77
37
34
53
78
100
29
24
18
94
19
86
43
39
22
33
38
68
48
90
42
5
-1
EOF
